117991
1,15,37,29,78,7,82,40,51,38,62,3,49,64,30,17,36,12,45,53,20,47,23,18,4,21,31,16,76,19,66,75,13,69,61,25,35,65,79,72,63,0,9,28,44,70,8,57,73,39,74,34,27,52,58,67,43,81,10,32,26,6,55,50,71,80,59,46,48,33,56,42,2,11,22,54,41,24,68,77,14,60,5,1